x = 23;
y = 13;
c = 81;
n = 32;

p = [55  11  28  41  29  62  99  88  54  49  21  22  31  52  57  43  66  88  60  81  12  81  26  25  41  13  88  31  58  64  74  56];
w = [7  4  8  5  4  7  9  8  7  2  1  9  1  10  6  5  4  9  7  1  10  6  1  1  3  7  6  6  9  8  2  8];
s = [8  1  3  10  10  5  8  2  8  10  6  11  9  12  5  13  12  2  13  10  13  6  5  12  6  8  11  2  3  12  10  7];
